
  12   12
  10   10   10   10   10   10   10   10   10   10   10   10

   0   0   0   0   0   0   0   0   0   0   0   0   0   3 2 3 11 
   1   0   1   0   1   0   0   0   1   0   0   1   0   5 10 7 6 5 4 
   6   0   0   1   4   1   0   0   0   0   0   0   1   2 10 8 
   5   1   6   0   8   0   1   0   0   5   0   0   0   1 9 
   6   9   0   6   6   0   0   1  10   0   0   5   0   1 9 
   6   0   8   5   0   9   0   9   0   0   5   0   0   1 8 
   3   0   0   0   0   0   0   0   0   0   0   0   0   1 8 
   8   0   0   0   0   0   4   0   0   0   0   0   0   1 12
   6   0   0   8   0   0   7   5   0   0   0   5   9   1 12
   2   0   0   5   6   0   0   0   4   0   0   0   0   1 12
   1   0   0   0   0   0   8   0   0   0   0   9   0   1 12
   0   0   0   0   0   0   0   0   0   0   0   0   0   0 
